******************************************************************************
This program contains Ipopt, a library for large-scale nonlinear optimization.
 Ipopt is released as open source code under the Eclipse Public License (EPL).
         For more information visit http://projects.coin-or.org/Ipopt
******************************************************************************

This is Ipopt version 3.12.10, running with linear solver mumps.
NOTE: Other linear solvers might be more efficient (see Ipopt documentation).

Number of nonzeros in equality constraint Jacobian...:     1194
Number of nonzeros in inequality constraint Jacobian.:        0
Number of nonzeros in Lagrangian Hessian.............:        0

Total number of variables............................:      450
                     variables with only lower bounds:        0
                variables with lower and upper bounds:      450
                     variables with only upper bounds:        0
Total number of equality constraints.................:      312
Total number of inequality constraints...............:        0
        inequality constraints with only lower bounds:        0
   inequality constraints with lower and upper bounds:        0
        inequality constraints with only upper bounds:        0

iter    objective    inf_pr   inf_du lg(mu)  ||d||  lg(rg) alpha_du alpha_pr  ls
   0  0.0000000e+00 2.50e+03 0.00e+00   0.0 0.00e+00    -  0.00e+00 0.00e+00   0
   1  5.6278675e+02 6.25e+02 4.02e+01  -4.0 2.50e+01    -  7.92e-01 1.00e+00h  1
   2  7.9511552e+02 1.56e+02 1.40e+01  -0.2 1.47e+01    -  9.16e-01 1.00e+00h  1
   3  7.9413335e+02 3.91e+01 1.80e+01  -0.8 1.23e+01    -  9.61e-01 1.00e+00f  1
   4  7.3779861e+02 9.77e+00 1.86e+01  -1.7 9.86e+00    -  1.00e+00 1.00e+00f  1
   5  5.7824793e+02 2.44e+00 1.65e+01  -3.0 6.06e+00    -  1.00e+00 1.00e+00f  1
   6  4.8800230e+02 6.10e-01 1.12e+01  -4.1 5.94e+00    -  1.00e+00 1.00e+00f  1
   7  3.6713570e+02 1.53e-01 1.02e+01  -5.4 5.40e+00    -  1.00e+00 1.00e+00f  1
   8  3.5346008e+02 3.81e-02 8.92e+00  -6.4 1.39e+01    -  1.00e+00 1.00e+00f  1
   9  2.2221031e+02 2.92e-02 9.47e+00  -7.3 1.66e+01    -  1.00e+00 2.50e-01f  3
iter    objective    inf_pr   inf_du lg(mu)  ||d||  lg(rg) alpha_du alpha_pr  ls
  10  1.9132336e+02 7.30e-03 7.27e+00  -7.6 5.04e+00    -  1.00e+00 1.00e+00f  1
  11  9.0306849e+01 1.83e-03 6.73e+00  -8.8 4.68e+00    -  1.00e+00 1.00e+00f  1
  12  7.9616652e+01 4.56e-04 6.55e+00 -10.1 1.71e+00    -  1.00e+00 1.00e+00f  1
  13  7.8861637e+01 1.14e-04 6.38e+00 -11.0 3.69e-01    -  1.00e+00 1.00e+00f  1
  14  7.8322988e+01 2.85e-05 6.73e+00 -11.0 1.77e-01    -  1.00e+00 1.00e+00f  1
  15  7.8202258e+01 7.13e-06 5.36e+00 -11.0 8.70e-02    -  1.00e+00 1.00e+00f  1
  16  7.8077947e+01 1.78e-06 3.13e+00 -11.0 3.92e-01    -  1.00e+00 1.00e+00f  1
  17  7.7951972e+01 1.00e-06 5.05e+00 -11.0 4.54e-01    -  1.00e+00 5.00e-01f  2
  18  7.7799044e+01 2.51e-07 1.17e-01 -11.0 2.46e-01    -  1.00e+00 1.00e+00f  1
  19  7.7714035e+01 1.41e-07 7.91e-02 -11.0 1.72e-01    -  1.00e+00 5.00e-01f  2
iter    objective    inf_pr   inf_du lg(mu)  ||d||  lg(rg) alpha_du alpha_pr  ls
  20  7.7644935e+01 3.53e-08 2.49e-02 -11.0 1.35e-01    -  1.00e+00 1.00e+00f  1
  21  7.7632798e+01 2.70e-08 2.17e-02 -11.0 2.24e-01    -  1.00e+00 2.50e-01f  3
  22  7.7630145e+01 6.75e-09 3.96e-02 -11.0 1.77e-01    -  1.00e+00 1.00e+00f  1
  23  7.7626391e+01 5.93e-09 1.52e-02 -11.0 1.97e-01    -  1.00e+00 1.25e-01f  4
  24  7.7621739e+01 1.48e-09 3.04e+01 -11.0 6.48e-02    -  1.00e+00 1.00e+00f  1
  25  7.7621099e+01 1.14e-09 8.57e-03 -11.0 5.54e-02    -  1.00e+00 2.50e-01f  3
  26  7.7620199e+01 1.15e-09 2.82e-03 -11.0 1.68e-02    -  1.00e+00 1.00e+00f  1
  27  7.7620191e+01 5.76e-10 6.15e-03 -11.0 9.78e-03    -  1.00e+00 5.00e-01f  2
  28  7.7620097e+01 7.19e-10 1.01e+02 -11.0 3.36e-03    -  1.00e+00 1.00e+00f  1
  29  7.7619968e+01 3.64e-05 7.28e+04 -10.5 3.13e+02    -  1.00e+00 2.73e-05f 14
iter    objective    inf_pr   inf_du lg(mu)  ||d||  lg(rg) alpha_du alpha_pr  ls
  30  7.7619999e+01 1.11e-09 1.63e-03 -11.0 7.28e-03    -  1.00e+00 1.00e+00h  1
  31  7.7619972e+01 7.61e-10 1.75e-03 -11.0 1.30e-02    -  1.00e+00 2.50e-01h  3
  32  7.7619929e+01 6.66e-10 2.97e-03 -11.0 1.82e-02    -  1.00e+00 2.50e-01f  3
  33  7.7619887e+01 4.59e-10 1.76e-03 -11.0 1.12e-02    -  1.00e+00 5.00e-01f  2
  34  7.7619802e+01 3.80e-10 2.17e-03 -11.0 8.71e-02    -  1.00e+00 1.25e-01f  4
  35  7.7619793e+01 1.94e-10 3.05e-03 -11.0 2.19e-02    -  1.00e+00 2.50e-01f  3
  36  7.7619760e+01 3.83e-10 4.03e-03 -11.0 5.72e-03    -  1.00e+00 5.00e-01f  2
  37  7.7619722e+01 4.22e-10 1.55e-03 -11.0 8.08e-03    -  1.00e+00 5.00e-01f  2
  38  7.7619745e+01 2.77e-10 4.90e-03 -11.0 2.90e-03    -  1.00e+00 1.00e+00H  1
  39  7.7619725e+01 1.06e-09 1.20e-03 -11.0 3.11e-03    -  1.00e+00 1.00e+00f  1
iter    objective    inf_pr   inf_du lg(mu)  ||d||  lg(rg) alpha_du alpha_pr  ls
  40  7.7619722e+01 1.33e-09 5.65e+00 -11.0 1.24e-03    -  1.00e+00 1.00e+00h  1
  41  7.7619729e+01 5.32e-10 3.50e+00 -11.0 4.05e-03    -  1.00e+00 5.00e-01h  2
  42  7.7619727e+01 6.65e-10 5.40e+00 -11.0 1.47e-03    -  1.00e+00 1.00e+00h  1
  43  7.7619721e+01 2.80e-08 2.46e-03 -11.0 3.80e+02    -  3.05e-01 6.66e-06f 16
  44  7.7620640e+01 1.52e-09 1.54e-02 -11.0 8.49e-03    -  1.00e+00 1.00e+00h  1
  45  7.7620515e+01 7.65e-10 8.07e-03 -11.0 1.84e-02    -  1.00e+00 1.00e+00f  1
  46  7.7620288e+01 1.03e-09 1.13e-02 -11.0 3.78e-02    -  1.00e+00 5.00e-01f  2
  47  7.7620115e+01 4.40e-10 5.83e-03 -11.0 1.42e-02    -  1.00e+00 5.00e-01f  2
  48  7.7619774e+01 7.16e-10 2.58e-03 -11.0 1.15e-02    -  1.00e+00 1.00e+00f  1
  49  7.7619746e+01 5.57e-10 3.09e-03 -11.0 9.10e-03    -  1.00e+00 2.50e-01f  3
iter    objective    inf_pr   inf_du lg(mu)  ||d||  lg(rg) alpha_du alpha_pr  ls
  50  7.7619730e+01 7.42e-10 2.39e-03 -11.0 2.72e-03    -  1.00e+00 1.00e+00h  1
  51  7.7619762e+01 1.89e-10 5.30e-03 -11.0 3.67e-03    -  1.00e+00 1.00e+00H  1
  52  7.7619722e+01 6.13e-10 1.76e-04 -11.0 2.58e-03    -  1.00e+00 1.00e+00f  1
  53  7.7619722e+01 6.71e-10 5.38e-04 -11.0 3.30e-04    -  1.00e+00 1.00e+00h  1
  54  7.7619722e+01 2.65e-10 5.58e+00 -11.0 2.57e-04    -  1.00e+00 1.00e+00h  1
  55  7.7619719e+01 3.41e-06 2.29e+03 -11.0 1.26e+01  -4.0 1.00e+00 1.22e-04f 14
  56  7.7619696e+01 9.57e-10 1.76e-03 -11.0 2.41e-03    -  1.00e+00 1.00e+00h  1
  57  7.7619717e+01 4.95e-10 3.18e-03 -11.0 2.53e-03    -  1.00e+00 1.00e+00h  1
  58  7.7619719e+01 5.99e-10 1.80e-03 -11.0 2.59e-03    -  1.00e+00 1.00e+00h  1
  59  7.7619719e+01 1.74e-09 9.44e-04 -11.0 1.24e-03    -  1.00e+00 1.00e+00h  1
iter    objective    inf_pr   inf_du lg(mu)  ||d||  lg(rg) alpha_du alpha_pr  ls
  60  7.7619721e+01 6.15e-10 3.06e-04 -11.0 6.30e-04    -  1.00e+00 1.00e+00h  1
  61  7.7619723e+01 2.40e-10 6.13e-04 -11.0 4.43e-04    -  1.00e+00 1.00e+00H  1
  62  7.7619723e+01 4.43e-07 4.71e+01  -9.6 2.71e+03    -  1.00e+00 1.41e-07f 19
  63  7.7619723e+01 4.43e-07 4.77e+01  -9.7 7.82e+02    -  2.42e-01 6.10e-08h 22
  64r 7.7619723e+01 4.43e-07 9.99e+02  -6.4 0.00e+00    -  0.00e+00 2.83e-07R 20
  65r 7.7619722e+01 8.33e-08 1.96e-04  -9.3 4.44e-04    -  1.00e+00 9.90e-04f  1
  66  7.7620822e+01 6.26e-10 2.55e+01  -9.7 1.69e-02    -  1.00e+00 1.00e+00h  1
  67  7.7620822e+01 3.07e-09 2.30e+01  -9.7 3.96e+02    -  2.30e-01 2.41e-07f 21
  68  7.7620821e+01 1.32e-08 4.13e+01  -9.7 8.46e+02    -  1.15e-01 3.63e-07f 19
  69r 7.7620821e+01 1.32e-08 9.99e+02  -7.9 0.00e+00    -  0.00e+00 3.65e-07R 18
iter    objective    inf_pr   inf_du lg(mu)  ||d||  lg(rg) alpha_du alpha_pr  ls
  70r 7.7620821e+01 3.25e-09 3.46e-06  -9.3 1.33e-05    -  1.00e+00 9.90e-04f  1
  71  7.7620820e+01 1.28e-08 2.11e-02  -9.7 8.41e+03    -  1.08e-02 4.54e-08f 19
  72  7.7620370e+01 1.23e-09 1.62e-02  -9.7 2.11e-02    -  1.00e+00 1.00e+00f  1
  73  7.7620028e+01 7.98e-10 1.17e+01  -9.7 7.13e-03    -  1.00e+00 1.00e+00f  1
  74  7.7619022e+01 6.31e-05 9.89e+04  -9.7 2.25e+02    -  4.45e-01 1.09e-04f 13
  75  7.7619222e+01 5.85e-09 2.56e-02 -11.0 3.58e-02    -  1.00e+00 1.00e+00h  1
  76  7.7619187e+01 1.56e-09 8.37e-03 -11.0 1.71e-02    -  1.00e+00 1.00e+00f  1
  77  7.7619557e+01 7.81e-10 4.86e-03 -11.0 6.56e-03    -  1.00e+00 1.00e+00h  1
  78  7.7619825e+01 6.40e-10 9.39e-03 -11.0 7.09e-03    -  1.00e+00 1.00e+00h  1
  79  7.7619778e+01 4.80e-10 3.13e-03 -11.0 6.30e-03    -  1.00e+00 5.00e-01f  2
iter    objective    inf_pr   inf_du lg(mu)  ||d||  lg(rg) alpha_du alpha_pr  ls
  80  7.7619776e+01 3.04e-10 5.99e-03 -11.0 1.27e-02    -  1.00e+00 2.50e-01f  3
  81  7.7619771e+01 9.67e-10 4.45e-03 -11.0 4.09e-03    -  1.00e+00 1.00e+00f  1
  82  7.7619754e+01 8.42e-10 1.57e-03 -11.0 3.27e-03    -  1.00e+00 1.00e+00h  1
  83  7.7619761e+01 5.97e-10 8.16e-04 -11.0 1.25e-03    -  1.00e+00 1.00e+00h  1
  84  7.7619766e+01 2.61e-10 4.94e-04 -11.0 5.42e-04    -  1.00e+00 1.00e+00H  1
  85  7.7619764e+01 2.40e-10 1.76e-03 -11.0 1.42e-02    -  1.00e+00 6.25e-02h  5
  86  7.7619764e+01 2.36e-10 2.43e-03 -11.0 3.98e-03    -  1.00e+00 1.00e+00H  1
  87  7.7619754e+01 1.28e-09 1.26e+01 -11.0 5.55e-03    -  1.00e+00 1.00e+00f  1
  88  7.7619760e+01 3.68e-10 4.49e+00 -11.0 5.61e-03    -  1.00e+00 5.00e-01h  2
  89  7.7619752e+01 9.04e-06 8.87e+03 -11.0 2.05e+00    -  1.00e+00 9.77e-04f 11
iter    objective    inf_pr   inf_du lg(mu)  ||d||  lg(rg) alpha_du alpha_pr  ls
  90  7.7619719e+01 4.52e-06 4.99e+03 -11.0 4.72e-03    -  1.00e+00 5.00e-01h  2
  91  7.7619734e+01 2.26e-06 2.81e+03 -11.0 2.13e-03    -  1.00e+00 5.00e-01h  2
  92  7.7619743e+01 1.69e-06 2.15e+03 -11.0 1.74e-03    -  1.00e+00 2.50e-01h  3
  93  7.7619753e+01 1.27e-06 1.65e+03 -11.0 1.49e-03    -  1.00e+00 2.50e-01h  3
  94  7.7619753e+01 1.25e-06 1.62e+03 -11.0 1.26e-03    -  1.00e+00 1.56e-02h  7
  95  7.7619802e+01 6.88e-10 6.34e-03 -11.0 1.41e-03    -  1.00e+00 1.00e+00h  1
  96  7.7619744e+01 8.92e-10 3.04e-03 -11.0 3.60e-03    -  1.00e+00 1.00e+00f  1
  97  7.7619756e+01 4.86e-10 3.48e-03 -11.0 3.30e-03    -  1.00e+00 1.00e+00h  1
  98  7.7619726e+01 1.15e-09 4.45e-04 -11.0 1.82e-03    -  1.00e+00 1.00e+00h  1
  99  7.7619724e+01 1.44e-09 1.05e-03 -11.0 3.79e-04    -  1.00e+00 1.00e+00h  1
iter    objective    inf_pr   inf_du lg(mu)  ||d||  lg(rg) alpha_du alpha_pr  ls
 100  7.7619724e+01 4.07e-10 8.54e-04 -11.0 1.18e-03    -  1.00e+00 1.00e+00h  1
 101  7.7619723e+01 8.43e-10 5.30e-04 -11.0 5.90e-04    -  1.00e+00 1.00e+00h  1
 102  7.7619723e+01 7.50e-10 3.96e-04 -11.0 4.50e-04    -  1.00e+00 1.00e+00h  1
 103  7.7619722e+01 6.76e-10 9.61e+00 -11.0 1.56e-04    -  1.00e+00 1.00e+00h  1
 104  7.7619721e+01 2.70e-07 9.05e-04 -11.0 6.77e+00  -4.5 1.00e+00 6.10e-05f 15
 105  7.7619735e+01 4.94e-10 2.42e-03 -11.0 1.32e-03    -  1.00e+00 1.00e+00h  1
 106  7.7619735e+01 4.98e-10 2.47e-03 -11.0 8.57e+03    -  8.19e-03 1.13e-10f 28
 107  7.7619735e+01 4.96e-10 2.38e-03 -11.0 8.76e+03    -  9.68e-03 5.52e-11f 29
 108  7.7619735e+01 4.96e-10 2.37e-03 -11.0 9.76e+03    -  1.25e-02 7.74e-13f 35
 109  7.7619728e+01 3.36e-10 1.80e+01 -11.0 2.37e-03    -  1.00e+00 1.00e+00H  1
iter    objective    inf_pr   inf_du lg(mu)  ||d||  lg(rg) alpha_du alpha_pr  ls
 110  7.7619693e+01 2.32e-06 3.31e+03 -11.0 3.68e+02    -  2.71e-01 8.29e-06f 16
 111  7.7619683e+01 8.05e-10 2.87e-03 -11.0 5.64e-03    -  1.00e+00 1.00e+00h  1
 112  7.7619697e+01 7.46e-10 1.16e-03 -11.0 2.24e-03    -  1.00e+00 1.00e+00h  1
 113  7.7619717e+01 2.14e-10 1.43e-03 -11.0 1.39e-03    -  1.00e+00 1.00e+00H  1
 114  7.7619732e+01 2.47e-10 3.07e-03 -11.0 2.28e-03    -  1.00e+00 1.00e+00H  1
 115  7.7619721e+01 1.03e-09 7.99e-04 -11.0 1.94e-03    -  1.00e+00 1.00e+00h  1
 116  7.7619721e+01 6.67e-10 6.82e+00 -11.0 3.90e-04    -  1.00e+00 1.00e+00h  1
 117  7.7619720e+01 3.33e-07 1.45e-03 -11.0 1.52e+01    -  1.00e+00 6.10e-05f 15
 118  7.7619789e+01 4.42e-10 1.09e-02 -11.0 5.28e-03    -  1.00e+00 1.00e+00h  1
 119  7.7619738e+01 2.28e-10 4.12e-03 -11.0 8.40e-03    -  1.00e+00 1.00e+00F  1
iter    objective    inf_pr   inf_du lg(mu)  ||d||  lg(rg) alpha_du alpha_pr  ls
 120  7.7619737e+01 1.54e-10 4.90e-03 -11.0 9.33e-03    -  1.00e+00 1.25e-01h  4
 121  7.7619732e+01 1.38e-10 2.69e-03 -11.0 1.90e-02    -  1.00e+00 6.25e-02f  5
 122  7.7619723e+01 7.67e-10 4.03e+00 -11.0 1.46e-03    -  1.00e+00 1.00e+00h  1
 123  7.7619722e+01 1.40e-07 6.13e-03 -11.0 1.39e+03    -  7.21e-02 2.20e-06f 16
 124  7.7619714e+01 1.27e-09 1.48e-03 -11.0 4.02e-03    -  1.00e+00 1.00e+00h  1
 125  7.7619719e+01 8.12e-10 1.03e-03 -11.0 1.34e-03    -  1.00e+00 1.00e+00h  1
 126  7.7619719e+01 7.83e-10 5.77e-04 -11.0 9.38e-04    -  1.00e+00 1.00e+00h  1
 127  7.7619721e+01 3.68e-10 4.00e-04 -11.0 5.03e-04    -  1.00e+00 1.00e+00H  1
 128  7.7619723e+01 1.03e-10 1.09e-03 -11.0 4.65e-04    -  1.00e+00 1.00e+00H  1
 129  7.7619723e+01 1.31e-07 7.85e-04 -10.7 1.24e+02    -  1.00e+00 1.54e-06f 20
iter    objective    inf_pr   inf_du lg(mu)  ||d||  lg(rg) alpha_du alpha_pr  ls
 130  7.7619722e+01 1.65e-09 3.69e-04 -10.8 5.32e-04    -  1.00e+00 1.00e+00h  1
 131  7.7619722e+01 1.04e-09 1.51e-04 -10.8 2.31e-04    -  1.00e+00 1.00e+00h  1
 132  7.7619722e+01 8.05e-10 5.16e+00 -10.8 9.98e-05    -  1.00e+00 1.00e+00h  1
 133  7.7619722e+01 4.71e-08 4.15e-04 -10.8 2.61e+00    -  1.00e+00 1.22e-04h 14
 134  7.7619722e+01 2.33e-08 4.95e-04 -10.8 7.28e-04    -  1.00e+00 5.00e-01h  2
 135  7.7619722e+01 2.30e-08 3.96e-04 -10.8 1.43e-02    -  1.00e+00 1.56e-02h  7
 136  7.7619722e+01 7.52e-10 4.63e-04 -10.8 3.57e-04    -  1.00e+00 1.00e+00h  1
 137  7.7619722e+01 7.74e-10 1.39e-04 -10.8 2.39e-04    -  1.00e+00 1.00e+00h  1
 138  7.7619722e+01 2.80e-10 4.47e-04 -10.8 2.02e-04    -  1.00e+00 1.00e+00H  1
 139  7.7619722e+01 1.05e-09 1.26e+01 -11.0 2.31e-04    -  1.00e+00 1.00e+00h  1
iter    objective    inf_pr   inf_du lg(mu)  ||d||  lg(rg) alpha_du alpha_pr  ls
 140  7.7619722e+01 3.70e-08 4.10e-04 -11.0 5.59e+02    -  1.79e-01 3.12e-07f 20
 141  7.7619727e+01 9.40e-10 2.15e-03 -11.0 1.10e-03    -  1.00e+00 1.00e+00h  1
 142  7.7619761e+01 3.82e-10 7.92e-03 -11.0 3.70e-03    -  1.00e+00 1.00e+00H  1
 143  7.7619753e+01 2.49e-10 4.89e-03 -11.0 5.75e-03    -  1.00e+00 2.50e-01h  3
 144  7.7619722e+01 1.33e-09 8.00e+00 -11.0 2.66e-03    -  1.00e+00 1.00e+00f  1
 145  7.7619722e+01 2.87e-08 6.81e-04 -11.0 5.57e+02    -  2.04e-01 2.40e-07f 20
 146  7.7619724e+01 2.85e-08 1.20e-03 -11.0 7.67e-02    -  1.00e+00 7.81e-03h  8
 147  7.7619722e+01 5.41e-10 2.27e-03 -11.0 6.20e-04    -  1.00e+00 1.00e+00h  1
 148  7.7619728e+01 2.91e-10 2.70e-03 -11.0 1.68e-03    -  1.00e+00 1.00e+00H  1
 149  7.7619722e+01 2.37e-10 7.18e-04 -11.0 1.02e-03    -  1.00e+00 1.00e+00H  1
iter    objective    inf_pr   inf_du lg(mu)  ||d||  lg(rg) alpha_du alpha_pr  ls
 150  7.7619722e+01 8.42e-08 4.98e-04 -10.6 2.33e+02    -  1.00e+00 1.15e-06f 19
 151  7.7619729e+01 6.42e-10 1.99e-03 -10.7 1.36e-03    -  1.00e+00 1.00e+00h  1
 152  7.7619725e+01 9.44e-10 1.23e-03 -10.7 1.40e-03    -  1.00e+00 1.00e+00h  1
 153  7.7619737e+01 1.54e-10 2.73e-03 -10.7 2.48e-03    -  1.00e+00 1.00e+00H  1
 154  7.7619724e+01 1.34e-09 1.46e-03 -10.7 1.97e-03    -  1.00e+00 1.00e+00h  1
 155  7.7619724e+01 4.96e-10 9.59e-04 -10.7 2.85e-03    -  1.00e+00 5.00e-01h  2

Number of Iterations....: 155

                                   (scaled)                 (unscaled)
Objective...............:   7.7619723577840887e+01    7.7619723577840887e+01
Dual infeasibility......:   9.5910191660181633e-04    9.5910191660181633e-04
Constraint violation....:   4.9562565163085992e-10    4.9562565163085992e-10
Complementarity.........:   1.8641295823472095e-11    1.8641295823472095e-11
Overall NLP error.......:   1.1883077517804783e-07    9.5910191660181633e-04


Number of objective function evaluations             = 778
Number of objective gradient evaluations             = 157
Number of equality constraint evaluations            = 778
Number of inequality constraint evaluations          = 0
Number of equality constraint Jacobian evaluations   = 159
Number of inequality constraint Jacobian evaluations = 0
Number of Lagrangian Hessian evaluations             = 0
Total CPU secs in IPOPT (w/o function evaluations)   =      1.179
Total CPU secs in NLP function evaluations           =     10.243

EXIT: Solved To Acceptable Level.


Solution of the primal variables, x
x[0] = -2.323213e-08
x[1] = 2.842615e-08
x[2] = 3.877700e-08
x[3] = 4.282383e-08
x[4] = -2.794117e-08
x[5] = -6.277003e-08
x[6] = -1.718409e-01
x[7] = 4.013491e-01
x[8] = 5.896870e-01
x[9] = -3.139773e-02
x[10] = 7.313861e-02
x[11] = 1.074924e-01
x[12] = -1.255909e-01
x[13] = 2.925544e-01
x[14] = 4.299695e-01
x[15] = -3.305228e-01
x[16] = 7.688685e-01
x[17] = 1.130191e+00
x[18] = -1.338533e-01
x[19] = 3.112962e-01
x[20] = 4.576051e-01
x[21] = -2.842313e-01
x[22] = 6.600760e-01
x[23] = 9.704813e-01
x[24] = -3.040386e-01
x[25] = 7.012180e-01
x[26] = 1.031856e+00
x[27] = -3.123177e-01
x[28] = 7.247572e-01
x[29] = 1.065681e+00
x[30] = -4.296263e-01
x[31] = 9.937682e-01
x[32] = 1.461824e+00
x[33] = -2.775415e-01
x[34] = 6.335507e-01
x[35] = 9.335141e-01
x[36] = -5.601692e-01
x[37] = 1.296607e+00
x[38] = 1.907137e+00
x[39] = -5.617800e-01
x[40] = 1.293631e+00
x[41] = 1.903999e+00
x[42] = -2.510734e-01
x[43] = 5.658991e-01
x[44] = 8.351870e-01
x[45] = -8.707876e-01
x[46] = 2.009932e+00
x[47] = 2.957391e+00
x[48] = -6.806936e-01
x[49] = 1.559671e+00
x[50] = 2.297017e+00
x[51] = -2.245811e-01
x[52] = 4.982619e-01
x[53] = 7.368833e-01
x[54] = -1.237552e+00
x[55] = 2.847824e+00
x[56] = 4.191865e+00
x[57] = -7.863633e-01
x[58] = 1.791897e+00
x[59] = 2.640881e+00
x[60] = -1.980977e-01
x[61] = 4.306429e-01
x[62] = 6.385728e-01
x[63] = -1.653839e+00
x[64] = 3.793376e+00
x[65] = 5.585984e+00
x[66] = -8.787853e-01
x[67] = 1.990309e+00
x[68] = 2.935592e+00
x[69] = -1.715904e-01
x[70] = 3.630044e-01
x[71] = 5.402731e-01
x[72] = -2.113028e+00
x[73] = 4.829679e+00
x[74] = 7.115169e+00
x[75] = -9.579695e-01
x[76] = 2.154903e+00
x[77] = 3.181150e+00
x[78] = -1.451461e-01
x[79] = 2.953715e-01
x[80] = 4.419579e-01
x[81] = -2.608498e+00
x[82] = 5.939822e+00
x[83] = 8.754843e+00
x[84] = -1.023913e+00
x[85] = 2.285671e+00
x[86] = 3.377546e+00
x[87] = -1.186284e-01
x[88] = 2.277023e-01
x[89] = 3.436263e-01
x[90] = -3.133631e+00
x[91] = 7.106894e+00
x[92] = 1.048042e+01
x[93] = -1.076618e+00
x[94] = 2.382617e+00
x[95] = 3.524777e+00
x[96] = -9.219252e-02
x[97] = 1.600788e-01
x[98] = 2.452984e-01
x[99] = -3.681815e+00
x[100] = 8.313982e+00
x[101] = 1.226733e+01
x[102] = -1.116115e+00
x[103] = 2.445736e+00
x[104] = 3.622857e+00
x[105] = -6.579274e-02
x[106] = 9.239726e-02
x[107] = 1.470226e-01
x[108] = -4.246435e+00
x[109] = 9.544173e+00
x[110] = 1.409099e+01
x[111] = -1.142368e+00
x[112] = 2.475028e+00
x[113] = 3.671774e+00
x[114] = -3.922087e-02
x[115] = 2.477216e-02
x[116] = 4.864294e-02
x[117] = -4.820863e+00
x[118] = 1.078056e+01
x[119] = 1.592681e+01
x[120] = -1.155344e+00
x[121] = 2.470511e+00
x[122] = 3.671517e+00
x[123] = -1.268285e-02
x[124] = -4.284078e-02
x[125] = -4.966970e-02
x[126] = -5.398478e+00
x[127] = 1.200623e+01
x[128] = 1.775022e+01
x[129] = -1.155114e+00
x[130] = 2.432166e+00
x[131] = 3.622107e+00
x[132] = 1.360345e-02
x[133] = -1.105394e-01
x[134] = -1.479709e-01
x[135] = -5.972672e+00
x[136] = 1.320426e+01
x[137] = 1.953663e+01
x[138] = -1.141664e+00
x[139] = 2.359983e+00
x[140] = 3.523541e+00
x[141] = 4.019673e-02
x[142] = -1.781921e-01
x[143] = -2.462907e-01
x[144] = -6.536826e+00
x[145] = 1.435776e+01
x[146] = 2.126147e+01
x[147] = -1.114952e+00
x[148] = 2.253981e+00
x[149] = 3.375810e+00
x[150] = 6.665025e-02
x[151] = -2.458147e-01
x[152] = -3.446361e-01
x[153] = -7.084314e+00
x[154] = 1.544979e+01
x[155] = 2.290015e+01
x[156] = -1.074999e+00
x[157] = 2.114160e+00
x[158] = 3.178918e+00
x[159] = 9.316056e-02
x[160] = -3.134692e-01
x[161] = -4.429307e-01
x[162] = -7.608512e+00
x[163] = 1.646346e+01
x[164] = 2.442810e+01
x[165] = -1.021794e+00
x[166] = 1.940522e+00
x[167] = 2.932871e+00
x[168] = 1.196592e-01
x[169] = -3.810827e-01
x[170] = -5.412590e-01
x[171] = -8.102797e+00
x[172] = 1.738186e+01
x[173] = 2.582073e+01
x[174] = -9.553460e-01
x[175] = 1.733070e+00
x[176] = 2.637664e+00
x[177] = 1.461345e-01
x[178] = -4.487250e-01
x[179] = -6.395660e-01
x[180] = -8.560548e+00
x[181] = 1.818808e+01
x[182] = 2.705347e+01
x[183] = -8.756552e-01
x[184] = 1.491799e+00
x[185] = 2.293305e+00
x[186] = 1.726286e-01
x[187] = -5.163615e-01
x[188] = -7.378709e-01
x[189] = -8.975144e+00
x[190] = 1.886520e+01
x[191] = 2.810175e+01
x[192] = -7.827286e-01
x[193] = 1.216702e+00
x[194] = 1.899784e+00
x[195] = 1.990781e-01
x[196] = -5.840237e-01
x[197] = -8.362153e-01
x[198] = -9.339970e+00
x[199] = 1.939632e+01
x[200] = 2.894097e+01
x[201] = -6.765771e-01
x[202] = 9.077803e-01
x[203] = 1.457103e+00
x[204] = 2.255276e-01
x[205] = -6.516646e-01
x[206] = -9.345055e-01
x[207] = -9.648413e+00
x[208] = 1.976452e+01
x[209] = 2.954656e+01
x[210] = -5.571943e-01
x[211] = 5.650283e-01
x[212] = 9.652637e-01
x[213] = 2.520038e-01
x[214] = -7.193436e-01
x[215] = -1.032853e+00
x[216] = -9.893856e+00
x[217] = 1.995289e+01
x[218] = 2.989394e+01
x[219] = -4.245770e-01
x[220] = 1.884361e-01
x[221] = 4.242490e-01
x[222] = 2.784655e-01
x[223] = -7.870251e-01
x[224] = -1.131205e+00
x[225] = -1.000000e+01
x[226] = 2.000000e+01
x[227] = 3.000000e+01
x[228] = 7.923691e-08
x[229] = 1.592652e-08
x[230] = 1.405693e-07
x[231] = 1.419843e+00
x[232] = 3.328070e-02
x[233] = -5.657900e-01
x[234] = -9.758943e+00
x[235] = 2.005515e+01
x[236] = 2.996758e+01
x[237] = 9.642292e-01
x[238] = 2.205845e-01
x[239] = -1.296732e-01
x[240] = 2.437074e+00
x[241] = 8.490572e-01
x[242] = 4.709670e-02
x[243] = -8.986060e+00
x[244] = 2.026680e+01
x[245] = 2.990844e+01
x[246] = 2.127301e+00
x[247] = 6.260147e-01
x[248] = -1.068764e-01
x[249] = 2.215214e+00
x[250] = 7.726636e-01
x[251] = 4.409064e-02
x[252] = -7.659374e+00
x[253] = 2.067161e+01
x[254] = 2.986031e+01
x[255] = 3.179442e+00
x[256] = 9.932426e-01
x[257] = -8.564594e-02
x[258] = 1.993348e+00
x[259] = 6.962479e-01
x[260] = 4.083105e-02
x[261] = -5.834349e+00
x[262] = 2.125049e+01
x[263] = 2.982240e+01
x[264] = 4.120659e+00
x[265] = 1.322258e+00
x[266] = -6.600285e-02
x[267] = 1.771523e+00
x[268] = 6.198129e-01
x[269] = 3.774131e-02
x[270] = -3.566443e+00
x[271] = 2.198432e+01
x[272] = 2.979393e+01
x[273] = 4.950964e+00
x[274] = 1.613064e+00
x[275] = -4.788753e-02
x[276] = 1.549695e+00
x[277] = 5.434121e-01
x[278] = 3.471994e-02
x[279] = -9.111124e-01
x[280] = 2.285400e+01
x[281] = 2.977411e+01
x[282] = 5.670359e+00
x[283] = 1.865672e+00
x[284] = -3.138035e-02
x[285] = 1.327884e+00
x[286] = 4.670202e-01
x[287] = 3.130879e-02
x[288] = 2.076188e+00
x[289] = 2.384044e+01
x[290] = 2.976215e+01
x[291] = 6.278842e+00
x[292] = 2.080090e+00
x[293] = -1.645625e-02
x[294] = 1.106050e+00
x[295] = 3.906523e-01
x[296] = 2.838760e-02
x[297] = 5.340002e+00
x[298] = 2.492454e+01
x[299] = 2.975728e+01
x[300] = 6.776412e+00
x[301] = 2.256327e+00
x[302] = -3.037468e-03
x[303] = 8.842297e-01
x[304] = 3.142946e-01
x[305] = 2.528754e-02
x[306] = 8.824873e+00
x[307] = 2.608722e+01
x[308] = 2.975870e+01
x[309] = 7.163071e+00
x[310] = 2.394387e+00
x[311] = 8.733170e-03
x[312] = 6.624063e-01
x[313] = 2.379473e-01
x[314] = 2.179501e-02
x[315] = 1.247534e+01
x[316] = 2.730939e+01
x[317] = 2.976561e+01
x[318] = 7.438808e+00
x[319] = 2.494271e+00
x[320] = 1.888771e-02
x[321] = 4.405421e-01
x[322] = 1.615872e-01
x[323] = 1.882313e-02
x[324] = 1.623594e+01
x[325] = 2.857195e+01
x[326] = 2.977721e+01
x[327] = 7.603596e+00
x[328] = 2.555965e+00
x[329] = 2.750793e-02
x[330] = 2.186095e-01
x[331] = 8.518752e-02
x[332] = 1.565778e-02
x[333] = 2.005122e+01
x[334] = 2.985579e+01
x[335] = 2.979270e+01
x[336] = 7.657527e+00
x[337] = 2.579426e+00
x[338] = 3.447724e-02
x[339] = -2.888832e-03
x[340] = 8.657281e-03
x[341] = 1.221944e-02
x[342] = 2.386574e+01
x[343] = 3.114183e+01
x[344] = 2.981129e+01
x[345] = 7.600545e+00
x[346] = 2.564707e+00
x[347] = 3.986172e-02
x[348] = -2.250387e-01
x[349] = -6.753216e-02
x[350] = 9.318487e-03
x[351] = 2.762403e+01
x[352] = 3.241096e+01
x[353] = 2.983223e+01
x[354] = 7.432593e+00
x[355] = 2.511834e+00
x[356] = 4.390147e-02
x[357] = -4.467669e-01
x[358] = -1.439624e-01
x[359] = 6.840498e-03
x[360] = 3.127061e+01
x[361] = 3.364411e+01
x[362] = 2.985483e+01
x[363] = 7.153755e+00
x[364] = 2.420743e+00
x[365] = 4.649658e-02
x[366] = -6.685862e-01
x[367] = -2.204002e-01
x[368] = 3.539968e-03
x[369] = 3.475005e+01
x[370] = 3.482215e+01
x[371] = 2.987826e+01
x[372] = 6.764001e+00
x[373] = 2.291428e+00
x[374] = 4.723838e-02
x[375] = -8.904286e-01
x[376] = -2.968604e-01
x[377] = -5.727837e-04
x[378] = 3.800688e+01
x[379] = 3.592598e+01
x[380] = 2.990167e+01
x[381] = 6.263326e+00
x[382] = 2.123895e+00
x[383] = 4.638185e-02
x[384] = -1.112273e+00
x[385] = -3.732718e-01
x[386] = -2.853341e-03
x[387] = 4.098565e+01
x[388] = 3.693649e+01
x[389] = 2.992426e+01
x[390] = 5.651736e+00
x[391] = 1.918149e+00
x[392] = 4.399437e-02
x[393] = -1.334087e+00
x[394] = -4.497092e-01
x[395] = -6.696577e-03
x[396] = 4.363089e+01
x[397] = 3.783458e+01
x[398] = 2.994527e+01
x[399] = 4.929235e+00
x[400] = 1.674206e+00
x[401] = 4.003387e-02
x[402] = -1.555918e+00
x[403] = -5.260656e-01
x[404] = -9.145414e-03
x[405] = 4.588716e+01
x[406] = 3.860115e+01
x[407] = 2.996393e+01
x[408] = 4.095816e+00
x[409] = 1.392080e+00
x[410] = 3.461796e-02
x[411] = -1.777756e+00
x[412] = -6.024385e-01
x[413] = -1.251822e-02
x[414] = 4.769898e+01
x[415] = 3.921711e+01
x[416] = 2.997946e+01
x[417] = 3.151480e+00
x[418] = 1.071771e+00
x[419] = 2.750445e-02
x[420] = -1.999589e+00
x[421] = -6.787958e-01
x[422] = -1.593583e-02
x[423] = 4.901091e+01
x[424] = 3.966338e+01
x[425] = 2.999104e+01
x[426] = 2.096230e+00
x[427] = 7.132808e-01
x[428] = 1.879106e-02
x[429] = -2.221410e+00
x[430] = -7.551657e-01
x[431] = -1.891772e-02
x[432] = 4.976748e+01
x[433] = 3.992085e+01
x[434] = 2.999787e+01
x[435] = 9.300714e-01
x[436] = 3.166046e-01
x[437] = 8.532127e-03
x[438] = -2.443223e+00
x[439] = -8.315394e-01
x[440] = -2.211802e-02
x[441] = 5.000000e+01
x[442] = 4.000000e+01
x[443] = 3.000000e+01
x[444] = -1.408043e-07
x[445] = 5.072682e-08
x[446] = -1.710018e-09
x[447] = -1.277063e+00
x[448] = -4.348786e-01
x[449] = -1.201049e-02


Objective value
f(x*) = 7.761972e+01


